
%FILE DATA:	Soccer Computational Problem for MiniZinc Models	%
%AUTHOR:	Jack Wall	%
%CONTACT:  	116397063@umail.ucc.ie			%
%LAST UPDATE:	03/03/2020, 15:59:51						%
%DESCRIPTION: 	18 games played with 12 games left				%


n=6; %number of teams

%Games to play
games=[|6,4|3,6|6,3|4,6|6,2|3,4|4,3|2,6|2,5|5,1|6,5|3,2|];

%Initial points
iPoints=[5,10,10,14,10,4];

%POSITION CONSTRAINTS
% [|teamID, operator, position|...]
% operators index:
%  1 for =  operator
%  2 for >  operator
%  3 for >= operator
%  4 for <  operator
%  5 for <= operator
positionConstraints=[|4,3,1|3,2,1|2,5,3|];